W=5;
H=5;

MAX_TIME=15;
MAX_TRACKS=13;

TARGET=(5,5);

TRAINS=[(4,3,DOWN),(2,3,TOP),(3,4,RIGHT),(3,2,LEFT)];
DECOYS=[];

INIT_POS=[
(2,3,STRAIGHT_TD),
(3,2,STRAIGHT_RL),
(3,4,STRAIGHT_RL),
(4,3,STRAIGHT_TD),
(5,5,STRAIGHT_RL),
];
TUNNEL_PAIRS=[];

GATES=[];
ACTIVATIONS=[];

DSWITCHES=[];
STATIONS=[];
